NAME: random86
TYPE: TSP
DIMENSION: 86
EDGE_WEIGHT_TYPE: EXPLICIT
EDGE_WEIGHT_FORMAT: FULL_MATRIX
EDGE_WEIGHT_SECTION
0 1270 1270 1270 1270 1270 1270 64 11 1270 1270 1270 1270 1270 43 1270 7 25 1270 56 1270 1270 1270 27 1270 1270 1270 1270 7 1270 11 1270 1270 1270 1270 1270 1270 8 1270 23 24 15 36 1270 18 1270 1270 1270 1270 19 1270 15 1270 1270 48 1270 1270 1270 1270 1270 22 1270 1270 22 74 1270 1270 22 66 1270 1270 1270 1270 1270 3 1270 38 1270 1270 1270 42 1270 43 1270 1270 1270
1270 0 12 1270 1270 13 1270 1270 1270 28 15 1270 1270 2 1270 21 1270 1270 86 1270 1270 1270 1270 29 61 1270 1270 20 1270 54 60 1270 1270 27 1270 1270 1270 47 1270 1270 32 1270 1270 1270 37 1270 1270 1270 1270 64 1270 66 1270 1270 9 1270 34 1270 1270 1270 72 1270 50 38 23 1270 1270 1270 1270 1270 5 2 1270 3 1270 1270 1270 81 17 33 1270 1270 1270 15 21 1270
1270 12 0 1270 1270 18 1270 1270 1270 28 6 1270 30 10 1270 12 1270 1270 1270 1270 1270 1270 1270 19 1270 1270 1270 10 38 52 52 1270 1270 24 1270 1270 1270 38 1270 24 25 1270 1270 1270 29 1270 1270 1270 1270 57 1270 1270 1270 1270 13 1270 30 12 1270 1270 1270 1270 1270 32 34 1270 1270 34 1270 1270 8 11 1270 13 1270 1270 24 1270 20 35 31 33 1270 16 10 1270
1270 1270 1270 0 27 1270 1270 1270 37 1270 1270 1270 17 1270 37 35 1270 20 1270 27 1270 1270 27 35 1270 13 1270 1270 40 1270 1270 1270 9 1270 23 1270 1270 1270 21 32 1270 1270 8 8 1270 16 1270 17 1270 1270 1270 1270 29 1270 1270 1270 1270 34 1270 1270 1270 20 1270 1270 1270 23 27 23 1270 1270 1270 1270 1270 1270 1270 10 20 1270 1270 1270 12 32 22 1270 34 14
1270 1270 1270 27 0 1270 29 43 1270 1270 1270 21 1270 1270 51 1270 1270 1270 43 29 1270 9 18 1270 31 28 42 1270 1270 1270 1270 1270 28 1270 5 30 29 1270 20 1270 1270 1270 1270 21 1270 12 18 1270 38 1270 1270 1270 1270 18 1270 17 1270 1270 20 14 1270 9 1270 1270 1270 21 22 1270 1270 10 1270 1270 24 1270 1270 25 1270 43 1270 1270 1270 1270 36 1270 1270 19
1270 13 18 1270 1270 0 1270 1270 1270 15 17 1270 38 14 1270 20 1270 1270 75 1270 1270 1270 1270 37 52 1270 1270 20 1270 41 70 1270 1270 16 1270 1270 1270 56 1270 1270 43 1270 1270 1270 47 1270 1270 1270 1270 75 1270 76 1270 1270 23 1270 24 21 1270 1270 82 1270 38 49 26 1270 1270 1270 1270 1270 17 11 1270 10 1270 1270 1270 70 4 20 1270 32 1270 6 23 1270
1270 1270 1270 1270 29 1270 0 1270 1270 1270 1270 1270 34 1270 1270 1270 1270 1270 23 1270 24 1270 1270 1270 4 1270 1270 1270 1270 27 1270 1270 1270 1270 27 59 1270 1270 47 1270 1270 1270 1270 1270 1270 28 1270 25 1270 1270 1270 1270 23 12 1270 22 31 1270 1270 18 1270 26 20 1270 81 18 1270 1270 1270 30 1270 1270 8 1270 1270 1270 1270 20 1270 43 1270 25 1270 1270 1270 27
64 1270 1270 1270 43 1270 1270 0 53 1270 1270 22 1270 1270 22 1270 62 45 1270 16 1270 1270 25 1270 1270 30 3 1270 64 1270 1270 3 35 1270 45 24 16 1270 26 1270 1270 69 42 37 1270 45 1270 1270 18 78 9 71 1270 1270 1270 1270 1270 1270 24 1270 77 1270 1270 1270 1270 1270 21 54 3 1270 1270 1270 1270 1270 62 1270 1270 1270 1270 1270 1270 1270 24 1270 1270 1270
11 1270 1270 37 1270 1270 1270 53 0 1270 1270 1270 45 1270 32 1270 11 18 1270 46 1270 1270 1270 30 1270 36 55 1270 14 1270 20 56 35 1270 1270 1270 59 15 48 25 1270 20 29 1270 26 1270 1270 1270 1270 27 61 21 1270 1270 1270 1270 1270 48 1270 1270 29 1270 1270 31 1270 1270 52 19 55 1270 1270 1270 1270 1270 10 45 36 1270 1270 1270 38 1270 33 1270 45 1270
1270 28 28 1270 1270 15 1270 1270 1270 0 24 1270 33 28 1270 22 1270 1270 60 1270 23 1270 1270 1270 38 1270 1270 24 1270 26 1270 1270 1270 7 1270 1270 1270 1270 1270 1270 1270 1270 1270 1270 1270 1270 1270 1270 1270 85 1270 1270 26 1270 37 1270 12 24 1270 1270 1270 1270 23 60 40 1270 1270 1270 1270 1270 1270 26 1270 25 1270 1270 1270 55 12 7 1270 21 1270 13 28 1270
1270 15 6 1270 1270 17 1270 1270 1270 24 0 1270 25 14 1270 6 1270 1270 1270 1270 28 1270 1270 21 1270 1270 1270 5 1270 1270 1270 1270 1270 19 1270 1270 1270 1270 1270 25 29 1270 1270 1270 33 1270 1270 37 1270 1270 1270 1270 30 1270 19 1270 24 6 1270 1270 1270 1270 40 37 38 1270 1270 33 1270 1270 13 14 1270 16 1270 36 21 1270 18 30 27 27 1270 13 6 1270
1270 1270 1270 1270 21 1270 1270 22 1270 1270 1270 0 1270 1270 34 1270 1270 1270 64 11 1270 23 4 1270 1270 21 21 1270 1270 1270 1270 21 1270 1270 23 15 9 1270 9 1270 1270 1270 1270 22 1270 25 3 1270 20 1270 22 1270 1270 1270 1270 36 1270 1270 4 35 1270 1270 1270 1270 1270 1270 4 1270 22 26 1270 1270 1270 1270 1270 1270 1270 1270 1270 1270 1270 1270 23 1270 1270 1270
1270 1270 30 17 1270 38 34 1270 45 33 25 1270 0 1270 1270 20 1270 29 1270 1270 16 1270 1270 29 32 31 1270 21 42 43 1270 1270 26 27 1270 1270 1270 43 37 29 41 1270 21 23 42 23 1270 12 1270 1270 1270 1270 15 28 1270 1270 23 19 1270 1270 1270 26 32 1270 1270 18 1270 27 1270 1270 1270 39 1270 1270 1270 11 11 54 36 39 8 17 39 32 21 16
1270 2 10 1270 1270 14 1270 1270 1270 28 14 1270 1270 0 1270 20 1270 1270 1270 1270 1270 1270 1270 28 1270 1270 1270 19 1270 54 1270 1270 1270 26 1270 1270 1270 1270 1270 33 31 1270 1270 1270 36 1270 1270 1270 1270 63 1270 1270 1270 1270 9 1270 1270 20 1270 1270 1270 1270 1270 37 24 1270 1270 1270 1270 1270 3 3 1270 4 1270 1270 34 1270 17 33 1270 1270 1270 15 19 1270
43 1270 1270 37 51 1270 1270 22 32 1270 1270 34 1270 1270 0 1270 41 30 1270 23 1270 1270 34 1270 1270 25 25 1270 45 1270 50 25 29 1270 50 43 33 46 31 50 1270 47 32 35 1270 47 1270 1270 39 57 30 49 1270 1270 1270 1270 1270 1270 38 1270 55 1270 1270 63 106 1270 31 39 24 1270 1270 1270 1270 1270 42 1270 51 1270 1270 1270 47 1270 16 1270 1270 1270
1270 21 12 35 1270 20 1270 1270 1270 22 6 1270 20 20 1270 0 1270 1270 1270 1270 23 1270 1270 22 44 1270 1270 2 1270 43 1270 1270 1270 17 1270 1270 1270 1270 1270 25 32 1270 36 42 1270 1270 1270 31 1270 1270 1270 1270 24 1270 25 1270 20 2 1270 1270 1270 1270 35 1270 43 35 1270 32 1270 1270 19 20 1270 21 1270 31 17 1270 20 29 23 22 1270 15 5 35
7 1270 1270 1270 1270 1270 1270 62 11 1270 1270 1270 1270 1270 41 1270 0 28 1270 57 1270 1270 1270 1270 1270 1270 1270 1270 14 1270 9 1270 1270 1270 1270 1270 1270 15 1270 30 30 10 40 1270 25 1270 1270 1270 1270 17 1270 10 1270 1270 55 1270 1270 1270 1270 1270 18 1270 1270 28 81 1270 1270 27 65 1270 1270 1270 1270 1270 9 1270 44 1270 1270 1270 47 1270 44 1270 1270 1270
25 1270 1270 20 1270 1270 1270 45 18 1270 1270 1270 29 1270 30 1270 28 0 1270 34 1270 1270 1270 26 1270 21 47 1270 22 1270 36 47 18 1270 1270 1270 47 23 33 21 1270 38 11 25 30 1270 1270 1270 1270 44 52 39 1270 1270 1270 1270 1270 37 1270 1270 46 1270 1270 1270 1270 1270 38 9 47 1270 1270 1270 1270 1270 23 28 22 1270 1270 1270 21 1270 22 1270 35 1270
1270 86 1270 1270 43 75 23 1270 1270 60 1270 64 1270 1270 1270 1270 1270 1270 0 73 46 41 1270 1270 26 1270 84 1270 1270 37 1270 1270 1270 1270 44 68 71 1270 1270 1270 1270 1270 1270 1270 1270 1270 60 1270 77 123 84 1270 46 32 93 28 52 1270 62 29 1270 45 37 106 100 41 66 1270 1270 38 1270 1270 21 84 1270 1270 1270 5 71 59 1270 47 1270 1270 1270 1270
56 1270 1270 27 29 1270 1270 16 46 1270 1270 11 1270 1270 23 1270 57 34 73 0 1270 34 12 1270 1270 15 16 1270 55 1270 1270 17 20 1270 30 23 13 1270 10 1270 1270 65 28 21 1270 29 14 1270 24 73 20 66 1270 45 1270 45 1270 1270 15 43 73 30 1270 1270 1270 1270 8 42 17 36 1270 1270 1270 1270 54 34 1270 1270 1270 1270 40 1270 13 1270 1270 34
1270 1270 1270 1270 1270 1270 24 1270 1270 23 28 1270 16 1270 1270 23 1270 1270 46 1270 0 1270 1270 1270 21 1270 1270 25 1270 27 1270 1270 1270 18 1270 1270 1270 1270 1270 1270 1270 1270 1270 1270 1270 1270 1270 17 1270 1270 1270 1270 3 24 1270 1270 11 23 1270 1270 1270 30 16 1270 60 17 1270 1270 1270 1270 1270 1270 1270 1270 1270 22 26 42 31 27 24 2 1270 28 1270 22
1270 1270 1270 1270 9 1270 1270 1270 1270 1270 1270 23 1270 1270 1270 1270 1270 1270 41 34 1270 0 22 1270 1270 36 43 1270 1270 59 1270 1270 1270 1270 14 28 30 1270 26 1270 1270 1270 1270 29 1270 21 20 1270 36 1270 43 1270 1270 23 1270 13 1270 1270 21 14 1270 18 1270 1270 1270 1270 26 1270 1270 3 1270 1270 25 1270 1270 1270 1270 42 1270 1270 1270 1270 1270 1270 1270 1270
1270 1270 1270 27 18 1270 1270 25 1270 1270 1270 4 1270 1270 34 1270 1270 1270 1270 12 1270 22 0 1270 1270 18 24 1270 1270 1270 1270 1270 22 1270 20 19 13 1270 6 1270 1270 1270 1270 19 1270 21 4 1270 24 1270 25 1270 1270 35 1270 34 1270 1270 6 32 1270 22 1270 1270 1270 1270 4 1270 1270 24 1270 1270 42 1270 1270 30 1270 1270 1270 1270 1270 1270 22 1270 1270 28
27 29 19 35 1270 37 1270 1270 30 1270 21 1270 29 28 1270 22 1270 26 1270 1270 1270 1270 1270 0 1270 1270 1270 20 20 1270 35 1270 1270 1270 1270 1270 1270 20 1270 6 12 1270 30 1270 14 1270 1270 41 1270 41 1270 1270 41 1270 25 1270 1270 20 1270 1270 1270 1270 1270 20 51 1270 1270 17 1270 1270 24 30 1270 32 25 36 18 1270 1270 1270 25 40 1270 34 16 1270
1270 61 1270 1270 31 52 4 1270 1270 38 1270 1270 32 1270 1270 44 1270 1270 26 1270 21 1270 1270 1270 0 1270 1270 1270 1270 24 1270 1270 1270 36 29 61 1270 1270 48 1270 1270 1270 1270 40 1270 29 1270 24 1270 99 1270 1270 20 13 68 26 28 44 1270 21 1270 27 16 80 78 18 1270 1270 1270 33 1270 1270 12 60 1270 31 44 22 49 39 39 22 1270 1270 1270 27
1270 1270 1270 13 28 1270 1270 30 36 1270 1270 21 31 1270 25 1270 1270 21 1270 15 1270 36 18 1270 1270 0 31 1270 1270 1270 1270 31 5 1270 26 36 27 1270 12 1270 1270 56 13 10 1270 22 23 28 38 1270 35 1270 1270 39 1270 1270 1270 1270 25 41 64 25 1270 1270 1270 33 17 28 31 38 1270 1270 1270 1270 1270 22 1270 1270 1270 1270 25 1270 9 1270 1270 24
1270 1270 1270 1270 42 1270 1270 3 55 1270 1270 21 1270 1270 25 1270 1270 47 84 16 1270 43 24 1270 1270 31 0 1270 1270 1270 1270 1 35 1270 44 21 13 1270 25 1270 1270 71 43 37 1270 44 24 1270 15 1270 6 1270 1270 1270 1270 56 1270 1270 22 1270 79 1270 1270 1270 1270 1270 20 1270 1 46 1270 1270 1270 1270 1270 1270 1270 1270 1270 1270 1270 1270 25 1270 1270 1270
1270 20 10 1270 1270 20 1270 1270 1270 24 5 1270 21 19 1270 2 1270 1270 1270 1270 25 1270 1270 20 1270 1270 1270 0 1270 1270 1270 1270 1270 18 1270 1270 1270 1270 1270 24 30 1270 1270 1270 33 1270 1270 32 1270 1270 1270 1270 26 1270 23 1270 22 2 1270 1270 1270 1270 38 1270 1270 1270 1270 31 1270 1270 18 19 1270 20 1270 32 16 1270 20 31 23 24 1270 15 3 1270
7 1270 38 40 1270 1270 1270 64 14 1270 1270 1270 42 1270 45 1270 14 22 1270 55 1270 1270 1270 20 1270 1270 1270 1270 0 1270 17 1270 40 1270 1270 1270 1270 1 1270 16 18 22 33 1270 12 1270 1270 1270 1270 24 1270 21 1270 1270 42 1270 1270 40 1270 1270 29 1270 1270 18 68 1270 1270 17 67 1270 1270 1270 1270 1270 5 46 32 1270 1270 1270 36 1270 42 1270 36 1270
1270 54 52 1270 1270 41 27 1270 1270 26 1270 1270 43 54 1270 43 1270 1270 37 1270 27 59 1270 1270 24 1270 1270 1270 1270 0 99 1270 1270 28 51 85 84 82 1270 1270 75 1270 1270 1270 78 1270 1270 41 93 105 1270 104 28 37 62 49 23 1270 75 46 111 49 11 83 64 37 1270 1270 1270 57 56 51 35 51 1270 1270 1270 32 37 22 1270 26 1270 38 1270 46
11 60 52 1270 1270 70 1270 1270 20 1270 1270 1270 1270 1270 50 1270 9 36 1270 1270 1270 1270 1270 35 1270 1270 1270 1270 17 99 0 1270 1270 1270 1270 1270 1270 16 1270 32 28 8 1270 1270 23 1270 1270 1270 1270 8 1270 6 1270 1270 53 1270 1270 1270 1270 1270 12 1270 1270 23 78 1270 1270 33 1270 1270 55 1270 1270 63 13 1270 48 1270 73 86 1270 1270 1270 1270 1270 1270
1270 1270 1270 1270 1270 1270 1270 3 56 1270 1270 21 1270 1270 25 1270 1270 47 1270 17 1270 1270 1270 1270 1270 31 1 1270 1270 1270 1270 0 1270 1270 1270 21 14 1270 25 1270 1270 72 1270 1270 1270 1270 1270 1270 15 1270 5 1270 1270 1270 1270 1270 1270 1270 23 1270 80 1270 1270 1270 1270 1270 20 1270 1 1270 1270 1270 1270 1270 1270 1270 1270 1270 1270 1270 1270 1270 26 1270 1270 1270
1270 1270 1270 9 28 1270 1270 35 35 1270 1270 1270 26 1270 29 1270 1270 18 1270 20 1270 1270 22 1270 1270 5 35 1270 40 1270 1270 1270 0 1270 26 1270 32 1270 16 35 1270 55 9 8 1270 20 1270 25 1270 1270 1270 1270 1270 1270 1270 1270 1270 1270 1270 1270 63 23 1270 1270 1270 30 21 25 36 1270 1270 1270 1270 1270 1270 18 27 1270 1270 1270 20 1270 13 1270 1270 20
1270 27 24 1270 1270 16 1270 1270 1270 7 19 1270 27 26 1270 17 1270 1270 1270 1270 18 1270 1270 1270 36 1270 1270 18 1270 28 1270 1270 1270 0 1270 1270 1270 1270 1270 1270 1270 1270 1270 1270 1270 1270 1270 33 1270 1270 1270 1270 21 1270 1270 1270 8 18 1270 1270 1270 1270 23 1270 42 1270 1270 1270 1270 1270 1270 24 1270 25 1270 37 30 1270 13 13 33 16 1270 11 22 1270
1270 1270 1270 23 5 1270 27 45 1270 1270 1270 23 1270 1270 50 1270 1270 1270 44 30 1270 14 20 1270 29 26 44 1270 1270 51 1270 1270 26 1270 0 34 32 1270 20 1270 1270 1270 1270 17 1270 7 21 19 1270 1270 1270 1270 31 15 1270 19 1270 1270 23 15 1270 4 41 1270 1270 17 24 1270 1270 15 1270 1270 23 1270 1270 20 1270 43 1270 1270 1270 1270 34 1270 1270 14
1270 1270 1270 1270 30 1270 59 24 1270 1270 1270 15 1270 1270 43 1270 1270 1270 68 23 1270 28 19 1270 61 36 21 1270 1270 85 1270 21 1270 1270 34 0 10 1270 24 1270 1270 1270 1270 1270 1270 1270 15 1270 9 1270 18 1270 1270 48 1270 40 1270 1270 13 42 1270 1270 75 1270 122 1270 19 1270 22 30 1270 1270 52 1270 1270 1270 1270 69 1270 94 1270 1270 36 1270 1270 1270
1270 1270 1270 1270 29 1270 1270 16 59 1270 1270 9 1270 1270 33 1270 1270 47 71 13 1270 30 13 1270 1270 27 13 1270 1270 84 1270 14 32 1270 32 10 0 1270 17 1270 1270 77 40 31 1270 34 12 1270 11 1270 13 1270 1270 1270 1270 43 1270 1270 9 43 86 1270 1270 1270 1270 1270 11 1270 15 33 1270 1270 53 1270 1270 1270 1270 71 1270 1270 1270 1270 26 1270 1270 1270
8 47 38 1270 1270 56 1270 1270 15 1270 1270 1270 43 1270 46 1270 15 23 1270 1270 1270 1270 1270 20 1270 1270 1270 1270 1 82 16 1270 1270 1270 1270 1270 1270 0 1270 16 17 23 33 1270 11 1270 1270 1270 1270 23 1270 21 1270 1270 41 1270 1270 40 1270 1270 28 1270 1270 17 67 1270 1270 18 1270 1270 42 1270 1270 50 6 1270 32 1270 58 70 36 1270 1270 1270 36 1270
1270 1270 1270 21 20 1270 47 26 48 1270 1270 9 37 1270 31 1270 1270 33 1270 10 1270 26 6 1270 48 12 25 1270 1270 1270 1270 25 16 1270 20 24 17 1270 0 1270 1270 68 25 14 1270 19 10 31 28 1270 28 1270 1270 35 1270 36 1270 1270 12 34 76 21 1270 1270 1270 33 6 1270 26 28 1270 1270 43 1270 1270 26 1270 1270 1270 1270 34 1270 17 1270 1270 25
23 1270 24 32 1270 1270 1270 1270 25 1270 25 1270 29 33 50 25 30 21 1270 1270 1270 1270 1270 6 1270 1270 1270 24 16 1270 32 1270 35 1270 1270 1270 1270 16 1270 0 14 38 27 1270 13 1270 1270 40 1270 38 1270 37 42 1270 31 1270 1270 24 1270 1270 1270 1270 1270 21 56 1270 1270 12 1270 1270 30 35 1270 1270 21 35 18 1270 1270 1270 24 42 42 1270 20 1270
24 32 25 1270 1270 43 1270 1270 1270 1270 29 1270 41 31 1270 32 30 1270 1270 1270 1270 1270 1270 12 1270 1270 1270 30 18 75 28 1270 1270 1270 1270 1270 1270 17 1270 14 0 1270 1270 1270 6 1270 1270 1270 1270 33 1270 34 1270 1270 25 1270 1270 31 1270 1270 40 1270 1270 8 51 1270 1270 25 1270 1270 27 33 1270 35 23 1270 30 1270 45 59 37 1270 1270 41 27 1270
15 1270 1270 1270 1270 1270 1270 69 20 1270 1270 1270 1270 1270 47 1270 10 38 1270 65 1270 1270 1270 1270 1270 56 71 1270 22 1270 8 72 55 1270 1270 1270 77 23 68 38 1270 0 49 1270 1270 1270 1270 1270 1270 11 77 3 1270 1270 1270 1270 1270 1270 1270 1270 8 1270 1270 32 86 1270 71 37 71 1270 1270 1270 1270 1270 18 1270 53 1270 1270 1270 56 1270 52 1270 1270 1270
36 1270 1270 8 1270 1270 1270 42 29 1270 1270 1270 21 1270 32 36 40 11 1270 28 1270 1270 1270 30 1270 13 43 1270 33 1270 1270 1270 9 1270 1270 1270 40 33 25 27 1270 49 0 14 38 24 1270 25 1270 1270 1270 1270 35 1270 1270 1270 1270 34 1270 1270 57 1270 1270 1270 1270 1270 30 16 44 1270 1270 1270 1270 1270 34 17 19 1270 1270 1270 14 38 19 1270 34 22
1270 1270 1270 8 21 1270 1270 37 1270 1270 1270 22 23 1270 35 42 1270 25 1270 21 1270 29 19 1270 40 10 37 1270 1270 1270 1270 1270 8 1270 17 1270 31 1270 14 1270 1270 1270 14 0 1270 12 22 19 1270 1270 1270 1270 32 29 1270 1270 1270 41 1270 32 1270 15 1270 1270 1270 23 20 31 1270 31 1270 1270 1270 1270 1270 13 28 1270 1270 1270 20 36 19 1270 1270 14
18 37 29 1270 1270 47 1270 1270 26 1270 33 1270 42 36 1270 1270 25 30 1270 1270 1270 1270 1270 14 1270 1270 1270 33 12 78 23 1270 1270 1270 1270 1270 1270 11 1270 13 6 1270 38 1270 0 1270 1270 1270 1270 28 1270 29 1270 1270 30 1270 1270 34 1270 1270 35 1270 1270 8 56 1270 1270 22 1270 1270 32 39 1270 40 17 1270 31 1270 50 63 37 1270 1270 1270 30 1270
1270 1270 1270 16 12 1270 28 45 1270 1270 1270 25 23 1270 47 1270 1270 1270 1270 29 1270 21 21 1270 29 22 44 1270 1270 1270 1270 1270 20 1270 7 1270 34 1270 19 1270 1270 1270 24 12 1270 0 23 13 1270 1270 1270 1270 26 17 1270 26 1270 1270 1270 21 1270 4 1270 1270 1270 14 24 1270 1270 22 1270 1270 27 1270 1270 13 1270 1270 1270 1270 24 1270 31 1270 1270 8
1270 1270 1270 1270 18 1270 1270 1270 1270 1270 1270 3 1270 1270 1270 1270 1270 1270 60 14 1270 20 4 1270 1270 23 24 1270 1270 1270 1270 1270 1270 1270 21 15 12 1270 10 1270 1270 1270 1270 22 1270 23 0 1270 21 1270 25 1270 1270 36 1270 32 1270 1270 3 32 1270 23 1270 1270 1270 1270 7 1270 1270 22 1270 1270 42 1270 1270 1270 1270 1270 1270 1270 1270 1270 1270 1270 1270 1270
1270 1270 1270 17 1270 1270 25 1270 1270 1270 37 1270 12 1270 1270 31 1270 1270 1270 1270 17 1270 1270 41 24 28 1270 32 1270 41 1270 1270 25 33 19 1270 1270 1270 31 40 1270 1270 25 19 1270 13 1270 0 1270 1270 1270 1270 14 17 1270 1270 27 30 1270 27 1270 15 29 1270 1270 7 1270 36 1270 1270 1270 1270 27 1270 1270 8 23 44 1270 44 17 18 1270 41 33 6
1270 1270 1270 1270 38 1270 1270 18 1270 1270 1270 20 1270 1270 39 1270 1270 1270 77 24 1270 36 24 1270 1270 38 15 1270 1270 93 1270 15 1270 1270 1270 9 11 1270 28 1270 1270 1270 1270 1270 1270 1270 21 1270 0 1270 11 1270 1270 1270 1270 49 1270 1270 19 50 1270 1270 1270 1270 1270 1270 22 1270 16 39 1270 1270 61 1270 1270 1270 1270 78 1270 1270 1270 1270 36 1270 1270 1270
19 64 57 1270 1270 75 1270 78 27 85 1270 1270 1270 63 57 1270 17 44 123 73 1270 1270 1270 41 99 1270 1270 1270 24 105 8 1270 1270 1270 1270 1270 1270 23 1270 38 33 11 1270 1270 28 1270 1270 1270 1270 0 1270 8 1270 1270 56 1270 82 1270 1270 1270 8 1270 96 26 80 1270 1270 1270 81 1270 59 66 1270 67 21 1270 1270 120 78 92 1270 1270 60 73 1270 1270
1270 1270 1270 1270 1270 1270 1270 9 61 1270 1270 22 1270 1270 30 1270 1270 52 84 20 1270 43 25 1270 1270 35 6 1270 1270 1270 1270 5 1270 1270 1270 18 13 1270 28 1270 1270 77 1270 1270 1270 1270 25 1270 11 1270 0 1270 1270 1270 1270 56 1270 1270 23 1270 85 1270 1270 1270 1270 1270 22 1270 6 45 1270 1270 1270 1270 1270 1270 1270 1270 1270 1270 1270 1270 31 1270 1270 1270
15 66 1270 1270 1270 76 1270 71 21 1270 1270 1270 1270 1270 49 1270 10 39 1270 66 1270 1270 1270 1270 1270 1270 1270 1270 21 104 6 1270 1270 1270 1270 1270 1270 21 1270 37 34 3 1270 1270 29 1270 1270 1270 1270 8 1270 0 1270 1270 59 1270 1270 1270 1270 1270 7 1270 1270 29 84 1270 1270 37 74 1270 1270 1270 1270 69 17 1270 1270 1270 78 91 1270 1270 54 1270 1270 1270
1270 1270 1270 29 1270 1270 23 1270 1270 26 30 1270 15 1270 1270 24 1270 1270 46 1270 3 1270 1270 41 20 1270 1270 26 1270 28 1270 1270 1270 21 31 1270 1270 1270 1270 42 1270 1270 35 32 1270 26 1270 14 1270 1270 1270 1270 0 22 1270 1270 14 24 1270 33 1270 27 18 1270 62 14 1270 42 1270 1270 1270 1270 29 1270 1270 20 25 41 33 30 22 4 1270 30 28 20
1270 1270 1270 1270 18 1270 12 1270 1270 1270 1270 1270 28 1270 1270 1270 1270 1270 32 45 24 23 35 1270 13 39 1270 1270 1270 37 1270 1270 1270 1270 15 48 1270 1270 35 1270 1270 1270 1270 29 1270 17 36 17 1270 1270 1270 1270 22 0 1270 17 34 1270 1270 12 1270 14 27 1270 84 10 39 1270 1270 22 1270 1270 11 1270 1270 23 1270 29 1270 48 1270 26 1270 1270 1270 17
48 9 13 1270 1270 23 1270 1270 1270 37 19 1270 1270 9 1270 25 55 1270 93 1270 1270 1270 1270 25 68 1270 1270 23 42 62 53 1270 1270 1270 1270 1270 1270 41 1270 31 25 1270 1270 1270 30 1270 1270 1270 1270 56 1270 59 1270 1270 0 1270 42 25 1270 1270 64 1270 57 30 26 1270 1270 1270 1270 1270 7 12 1270 13 47 1270 36 88 26 42 1270 1270 1270 24 23 1270
1270 1270 1270 1270 17 1270 22 1270 1270 1270 1270 36 1270 1270 1270 1270 1270 1270 28 45 1270 13 34 1270 26 1270 56 1270 1270 49 1270 1270 1270 1270 19 40 43 1270 36 1270 1270 1270 1270 1270 1270 26 32 1270 49 1270 56 1270 1270 17 1270 0 1270 1270 34 6 1270 22 42 1270 101 27 38 1270 1270 10 1270 1270 14 1270 1270 1270 1270 29 1270 64 1270 1270 1270 1270 1270 1270
1270 34 30 1270 1270 24 31 1270 1270 12 24 1270 23 1270 1270 20 1270 1270 52 1270 11 1270 1270 1270 28 1270 1270 22 1270 23 1270 1270 1270 8 1270 1270 1270 1270 1270 1270 1270 1270 1270 1270 1270 1270 1270 27 1270 82 1270 1270 14 34 42 1270 0 21 1270 1270 1270 1270 16 60 50 28 1270 1270 1270 1270 1270 32 1270 32 1270 32 30 47 21 16 31 9 1270 19 25 1270
1270 1270 12 34 1270 21 1270 1270 48 24 6 1270 19 20 1270 2 1270 37 1270 1270 23 1270 1270 20 44 1270 1270 2 40 1270 1270 1270 1270 18 1270 1270 1270 40 1270 24 31 1270 34 41 34 1270 1270 30 1270 1270 1270 1270 24 1270 25 1270 21 0 1270 1270 1270 1270 36 1270 1270 35 1270 30 1270 1270 20 20 1270 1270 1270 30 15 1270 21 31 21 22 1270 16 4 34
1270 1270 1270 1270 20 1270 1270 24 1270 1270 1270 4 1270 1270 38 1270 1270 1270 62 15 1270 21 6 1270 1270 25 22 1270 1270 75 1270 23 1270 1270 23 13 9 1270 12 1270 1270 1270 1270 1270 1270 1270 3 1270 19 1270 23 1270 1270 1270 1270 34 1270 1270 0 33 1270 1270 1270 1270 1270 1270 8 1270 24 24 1270 1270 44 1270 1270 1270 1270 62 1270 1270 1270 1270 27 1270 1270 1270
1270 1270 1270 1270 14 1270 18 1270 1270 1270 1270 35 1270 1270 1270 1270 1270 1270 29 43 1270 14 32 1270 21 41 1270 1270 1270 46 1270 1270 1270 1270 15 42 43 1270 34 1270 1270 1270 1270 32 1270 21 32 27 50 1270 1270 1270 33 12 1270 6 1270 1270 33 0 1270 17 37 1270 1270 21 36 1270 1270 12 1270 1270 11 1270 1270 1270 1270 29 1270 1270 1270 1270 1270 1270 1270 25
22 72 1270 1270 1270 82 1270 77 29 1270 1270 1270 1270 1270 55 1270 18 46 1270 73 1270 1270 1270 1270 1270 64 79 1270 29 111 12 80 63 1270 1270 1270 86 28 76 1270 40 8 57 1270 35 1270 1270 1270 1270 8 85 7 1270 1270 64 1270 1270 1270 1270 1270 0 1270 1270 34 88 1270 79 44 79 1270 1270 1270 1270 75 25 1270 1270 1270 85 98 1270 1270 60 1270 1270 1270
1270 1270 1270 20 9 1270 26 1270 1270 1270 1270 1270 26 1270 1270 1270 1270 1270 45 30 30 18 22 1270 27 25 1270 1270 1270 49 1270 1270 23 1270 4 1270 1270 1270 21 1270 1270 1270 1270 15 1270 4 23 15 1270 1270 1270 1270 27 14 1270 22 1270 1270 1270 17 1270 0 39 1270 1270 14 25 1270 1270 19 1270 1270 24 1270 1270 16 1270 43 1270 1270 27 32 1270 1270 1270 10
1270 50 1270 1270 1270 38 20 1270 1270 23 40 1270 32 1270 1270 35 1270 1270 37 1270 16 1270 1270 1270 16 1270 1270 38 1270 11 1270 1270 1270 23 41 75 1270 1270 1270 1270 1270 1270 1270 1270 1270 1270 1270 29 1270 96 1270 1270 18 27 57 42 16 36 1270 37 1270 39 0 75 63 26 1270 1270 1270 1270 1270 1270 28 47 1270 37 42 31 35 23 40 16 1270 34 1270 35
22 38 32 1270 1270 49 1270 1270 31 60 37 1270 1270 37 63 1270 28 1270 106 1270 1270 1270 1270 20 80 1270 1270 1270 18 83 23 1270 1270 1270 1270 1270 1270 17 1270 21 8 32 1270 1270 8 1270 1270 1270 1270 26 1270 29 1270 1270 30 1270 60 1270 1270 1270 34 1270 75 0 54 1270 1270 30 1270 1270 33 40 1270 41 22 1270 37 102 52 67 1270 1270 1270 48 35 1270
74 23 34 1270 1270 26 81 1270 1270 40 38 1270 1270 24 106 43 81 1270 100 1270 60 1270 1270 51 78 1270 1270 1270 68 64 78 1270 1270 42 1270 122 1270 67 1270 56 51 86 1270 1270 56 1270 1270 1270 1270 80 1270 84 62 84 26 101 50 1270 1270 1270 88 1270 63 54 0 75 1270 1270 1270 1270 27 23 89 22 73 1270 1270 94 29 41 1270 58 1270 32 43 1270
1270 1270 1270 23 21 1270 18 1270 1270 1270 1270 1270 18 1270 1270 35 1270 1270 41 1270 17 1270 1270 1270 18 33 1270 1270 1270 37 1270 1270 30 1270 17 1270 1270 1270 33 1270 1270 1270 1270 23 1270 14 1270 7 1270 1270 1270 1270 14 10 1270 27 28 35 1270 21 1270 14 26 1270 75 0 1270 1270 1270 28 1270 1270 20 1270 1270 14 30 38 1270 43 23 18 1270 1270 1270 10
1270 1270 1270 27 22 1270 1270 21 52 1270 1270 4 1270 1270 31 1270 1270 38 66 8 1270 26 4 1270 1270 17 20 1270 1270 1270 1270 20 21 1270 24 19 11 1270 6 1270 1270 71 30 20 1270 24 7 1270 22 1270 22 1270 1270 39 1270 38 1270 1270 8 36 79 25 1270 1270 1270 1270 0 1270 21 28 1270 1270 1270 1270 1270 32 1270 1270 1270 1270 1270 1270 19 1270 1270 30
22 1270 34 23 1270 1270 1270 54 19 1270 33 1270 27 1270 39 32 27 9 1270 42 1270 1270 1270 17 1270 28 1270 31 17 1270 33 1270 25 1270 1270 1270 1270 18 1270 12 25 37 16 31 22 1270 1270 36 1270 1270 1270 37 42 1270 1270 1270 1270 30 1270 1270 44 1270 1270 30 1270 1270 1270 0 56 1270 1270 1270 1270 1270 19 29 17 1270 1270 1270 20 43 31 1270 28 35
66 1270 1270 1270 1270 1270 1270 3 55 1270 1270 22 1270 1270 24 1270 65 47 1270 17 1270 1270 1270 1270 1270 31 1 1270 67 1270 1270 1 36 1270 1270 22 15 1270 26 1270 1270 71 44 1270 1270 1270 1270 1270 16 81 6 74 1270 1270 1270 1270 1270 1270 24 1270 79 1270 1270 1270 1270 1270 21 56 0 1270 1270 1270 1270 1270 65 1270 1270 1270 1270 1270 1270 1270 26 1270 1270 1270
1270 1270 1270 1270 10 1270 30 1270 1270 1270 1270 26 1270 1270 1270 1270 1270 1270 38 36 1270 3 24 1270 33 38 46 1270 1270 57 1270 1270 1270 1270 15 30 33 1270 28 1270 1270 1270 1270 31 1270 22 22 1270 39 1270 45 1270 1270 22 1270 10 1270 1270 24 12 1270 19 1270 1270 1270 28 28 1270 1270 0 1270 1270 23 1270 1270 1270 1270 39 1270 1270 1270 1270 1270 1270 1270 1270
1270 5 8 1270 1270 17 1270 1270 1270 1270 13 1270 1270 3 1270 19 1270 1270 1270 1270 1270 1270 1270 24 1270 1270 1270 18 1270 56 55 1270 1270 1270 1270 1270 1270 42 1270 30 27 1270 1270 1270 32 1270 1270 1270 1270 59 1270 1270 1270 1270 7 1270 1270 20 1270 1270 1270 1270 1270 33 27 1270 1270 1270 1270 1270 0 6 1270 8 1270 1270 32 1270 20 36 1270 1270 1270 18 18 1270
1270 2 11 1270 1270 11 1270 1270 1270 26 14 1270 39 3 1270 20 1270 1270 1270 1270 1270 1270 1270 30 1270 1270 1270 19 1270 51 1270 1270 1270 24 1270 1270 1270 1270 1270 35 33 1270 1270 1270 39 1270 1270 1270 1270 66 1270 1270 1270 1270 12 1270 32 20 1270 1270 1270 1270 1270 40 23 1270 1270 1270 1270 1270 6 0 1270 2 1270 1270 35 1270 15 31 1270 38 1270 13 20 1270
1270 1270 1270 1270 24 1270 8 1270 1270 1270 1270 1270 1270 1270 1270 1270 1270 1270 21 1270 1270 25 42 1270 12 1270 1270 1270 1270 35 1270 1270 1270 1270 23 52 53 1270 43 1270 1270 1270 1270 1270 1270 27 42 27 61 1270 1270 1270 29 11 1270 14 1270 1270 44 11 1270 24 28 1270 89 20 1270 1270 1270 23 1270 1270 0 1270 1270 1270 1270 20 1270 51 1270 1270 1270 1270 1270 28
1270 3 13 1270 1270 10 1270 1270 1270 25 16 1270 1270 4 1270 21 1270 1270 84 1270 1270 1270 1270 32 60 1270 1270 20 1270 51 63 1270 1270 25 1270 1270 1270 50 1270 1270 35 1270 1270 1270 40 1270 1270 1270 1270 67 1270 69 1270 1270 13 1270 32 1270 1270 1270 75 1270 47 41 22 1270 1270 1270 1270 1270 8 2 1270 0 1270 1270 1270 79 14 30 1270 1270 1270 13 22 1270
3 1270 1270 1270 1270 1270 1270 62 10 1270 1270 1270 1270 1270 42 1270 9 23 1270 54 1270 1270 1270 25 1270 1270 1270 1270 5 1270 13 1270 1270 1270 1270 1270 1270 6 1270 21 23 18 34 1270 17 1270 1270 1270 1270 21 1270 17 1270 1270 47 1270 1270 1270 1270 1270 25 1270 1270 22 73 1270 1270 19 65 1270 1270 1270 1270 1270 0 1270 36 1270 1270 1270 39 1270 41 1270 1270 1270
1270 1270 1270 10 25 1270 1270 1270 45 1270 36 1270 11 1270 1270 31 1270 28 1270 34 22 1270 30 36 31 22 1270 32 46 1270 1270 1270 18 37 20 1270 1270 1270 26 35 1270 1270 17 13 1270 13 1270 8 1270 1270 1270 1270 20 23 1270 1270 32 30 1270 1270 1270 16 37 1270 1270 14 32 29 1270 1270 1270 1270 1270 1270 1270 0 19 1270 1270 1270 11 23 31 43 31 6
38 1270 24 20 1270 1270 1270 1270 36 1270 21 1270 11 34 51 17 44 22 1270 1270 26 1270 1270 18 44 1270 1270 16 32 1270 48 1270 27 30 1270 1270 1270 32 1270 18 30 53 19 28 31 1270 1270 23 1270 1270 1270 1270 25 1270 36 1270 30 15 1270 1270 1270 1270 42 37 1270 30 1270 17 1270 1270 32 35 1270 1270 36 19 0 1270 1270 1270 8 26 38 31 15 25
1270 81 1270 1270 43 70 20 1270 1270 55 1270 1270 54 1270 1270 1270 1270 1270 5 1270 42 42 1270 1270 22 1270 1270 1270 1270 32 1270 1270 1270 1270 43 69 71 1270 1270 1270 1270 1270 1270 1270 1270 1270 1270 44 78 120 1270 1270 41 29 88 29 47 1270 62 29 1270 43 31 102 94 38 1270 1270 1270 39 1270 1270 20 79 1270 1270 1270 0 66 53 1270 43 1270 1270 1270 47
1270 17 20 1270 1270 4 1270 1270 1270 12 18 1270 36 17 1270 20 1270 1270 71 1270 31 1270 1270 1270 49 1270 1270 20 1270 37 73 1270 1270 13 1270 1270 1270 58 1270 1270 45 1270 1270 1270 50 1270 1270 1270 1270 78 1270 78 33 1270 26 1270 21 21 1270 1270 85 1270 35 52 29 1270 1270 1270 1270 1270 20 15 1270 14 1270 1270 1270 66 0 16 1270 29 1270 5 23 1270
1270 33 35 1270 1270 20 43 1270 1270 7 30 1270 39 33 1270 29 1270 1270 59 1270 27 1270 1270 1270 39 1270 1270 31 1270 22 86 1270 1270 13 1270 94 1270 70 1270 1270 59 1270 1270 1270 63 1270 1270 44 1270 92 1270 91 30 48 42 64 16 31 1270 1270 98 1270 23 67 41 43 1270 1270 1270 1270 36 31 51 30 1270 1270 1270 53 16 0 1270 26 1270 19 1270 1270
42 1270 31 12 1270 1270 1270 1270 38 1270 27 1270 8 1270 47 23 47 21 1270 40 24 1270 1270 25 39 25 1270 23 36 1270 1270 1270 20 33 1270 1270 1270 36 34 24 37 56 14 20 37 24 1270 17 1270 1270 1270 1270 22 1270 1270 1270 31 21 1270 1270 1270 27 40 1270 1270 23 1270 20 1270 1270 1270 1270 1270 1270 39 11 8 1270 1270 1270 0 24 33 37 22 18
1270 1270 33 32 1270 32 25 1270 1270 21 27 1270 17 1270 1270 22 1270 1270 47 1270 2 1270 1270 40 22 1270 1270 24 1270 26 1270 1270 1270 16 1270 1270 1270 1270 1270 42 1270 1270 38 36 1270 1270 1270 18 1270 1270 1270 1270 4 26 1270 1270 9 22 1270 1270 1270 32 16 1270 58 18 1270 43 1270 1270 1270 38 1270 1270 1270 23 26 43 29 26 24 0 1270 26 26 24
43 1270 1270 22 36 1270 1270 24 33 1270 1270 23 39 1270 16 1270 44 22 1270 13 1270 1270 22 1270 1270 9 25 1270 42 1270 1270 26 13 1270 34 36 26 1270 17 42 1270 52 19 19 1270 31 1270 1270 36 60 31 54 1270 1270 1270 1270 1270 1270 27 1270 60 1270 1270 1270 1270 1270 19 31 26 1270 1270 1270 1270 1270 41 31 38 1270 1270 1270 33 1270 0 1270 1270 33
1270 15 16 1270 1270 6 1270 1270 1270 13 13 1270 32 15 1270 15 1270 1270 1270 1270 28 1270 1270 34 1270 1270 1270 15 1270 38 1270 1270 1270 11 1270 1270 1270 1270 1270 1270 41 1270 1270 1270 1270 1270 1270 41 1270 73 1270 1270 30 1270 24 1270 19 16 1270 1270 1270 1270 34 48 32 1270 1270 1270 1270 1270 18 13 1270 13 1270 43 31 1270 5 19 37 26 1270 0 18 1270
1270 21 10 34 1270 23 1270 1270 45 28 6 1270 21 19 1270 5 1270 35 1270 1270 1270 1270 1270 16 1270 1270 1270 3 36 1270 1270 1270 1270 22 1270 1270 1270 36 1270 20 27 1270 34 1270 30 1270 1270 33 1270 1270 1270 1270 28 1270 23 1270 25 4 1270 1270 1270 1270 1270 35 43 1270 1270 28 1270 1270 18 20 1270 22 1270 31 15 1270 23 1270 22 26 1270 18 0 1270
1270 1270 1270 14 19 1270 27 1270 1270 1270 1270 1270 16 1270 1270 35 1270 1270 1270 34 22 1270 28 1270 27 24 1270 1270 1270 46 1270 1270 20 1270 14 1270 1270 1270 25 1270 1270 1270 22 14 1270 8 1270 6 1270 1270 1270 1270 20 17 1270 1270 1270 34 1270 25 1270 10 35 1270 1270 10 30 35 1270 1270 1270 1270 28 1270 1270 6 25 47 1270 1270 18 24 33 1270 1270 0
EOF
